************************************************************************
file with basedata            : mm58_.bas
initial value random generator: 2048606670
************************************************************************
projects                      :  1
jobs (incl. supersource/sink ):  12
horizon                       :  91
RESOURCES
  - renewable                 :  2   R
  - nonrenewable              :  2   N
  - doubly constrained        :  0   D
************************************************************************
PROJECT INFORMATION:
pronr.  #jobs rel.date duedate tardcost  MPM-Time
    1     10      0       13        9       13
************************************************************************
PRECEDENCE RELATIONS:
jobnr.    #modes  #successors   successors
   1        1          3           2   3   4
   2        3          2           7   8
   3        3          3           6   7   8
   4        3          3           5   7  10
   5        3          1          11
   6        3          1          10
   7        3          1           9
   8        3          1          11
   9        3          1          12
  10        3          1          12
  11        3          1          12
  12        1          0        
************************************************************************
REQUESTS/DURATIONS:
jobnr. mode duration  R 1  R 2  N 1  N 2
------------------------------------------------------------------------
  1      1     0       0    0    0    0
  2      1     1       8    6    8    0
         2     1       9    8    5    0
         3    10       5    3    2    0
  3      1     3       8    4    0    7
         2     4       8    2    1    0
         3     6       7    2    0    6
  4      1     2       2   10    0    3
         2     7       2    9    3    0
         3     8       2    9    0    3
  5      1     4       8    8    8    0
         2     7       8    5    0    9
         3    10       8    4    0    7
  6      1     2       6    6    0    9
         2     4       6    3    0    8
         3     9       5    3    0    8
  7      1     2       2    8    0    7
         2     8       1    7    0    6
         3     9       1    7    0    4
  8      1     4       7    2    8    0
         2     4       7    2    0    8
         3    10       5    1    9    0
  9      1     8       2    6    0    7
         2     9       1    4    7    0
         3    10       1    3    6    0
 10      1     7       7    6    0    8
         2     8       6    5    0    6
         3    10       5    5    0    2
 11      1     5       3   10    6    0
         2     7       3    8    3    0
         3     9       2    7    0    1
 12      1     0       0    0    0    0
************************************************************************
RESOURCEAVAILABILITIES:
  R 1  R 2  N 1  N 2
   24   24   22   37
************************************************************************
MAXIMAL LAGS:
from  to  type  delay
    1   12   ES      0
    1    2   ES      0
    2   12   ES      0
    1    3   ES      0
    3   12   ES      0
    1    4   ES      0
    4   12   ES      0
    1    5   ES      0
    5   12   ES      0
    1    6   ES      0
    6   12   ES      0
    1    7   ES      0
    7   12   ES      0
    1    8   ES      0
    8   12   ES      0
    1    9   ES      0
    9   12   ES      0
    1   10   ES      0
   10   12   ES      0
    1   11   ES      0
   11   12   ES      0
    1   12   ES      0
    2    7   SS     -8
    2    7   SE     12
    2    7   ES     10
    2    7   EE     -3
    2    8   SS     -6
    2    8   SE      9
    2    8   ES      9
    2    8   EE     -1
    3    6   SS     10
    3    6   SE      5
    3    6   ES      5
    3    6   EE     -2
    3    7   SS     -6
    3    7   SE      2
    3    7   ES      6
    3    7   EE      4
    3    8   SS     -7
    3    8   SE     -9
    3    8   ES     11
    3    8   EE     11
    4    5   SS     -3
    4    5   SE      8
    4    5   ES     -5
    4    5   EE     -6
    4    7   SS      7
    4    7   SE      8
    4    7   ES     -2
    4    7   EE     -7
    4   10   SS      8
    4   10   SE      3
    4   10   ES     -1
    4   10   EE     -5
    5   11   SS      0
    5   11   SE      3
    5   11   ES     10
    5   11   EE     -4
    6   10   SS      6
    6   10   SE      2
    6   10   ES      5
    6   10   EE     -2
    7    9   SS     -8
    7    9   SE     -4
    7    9   ES      7
    7    9   EE    -10
    8   11   SS     -4
    8   11   SE     -9
   11    8   SE      0
    8   11   ES      0
    8   11   EE      5
************************************************************************
